!    ibrav = 0, nat = 8, ntyp = 1
CELL_PARAMETERS bohr
   14.7383898826006856    0.0000000000000000    0.0000000000000000
   -7.3691949413003428   12.7638200490158358    0.0000000000000000
    0.0000000000000000    0.0000000000000000   37.7945227409938056
ATOMIC_SPECIES
 Si   28.08550   Si.pbesol-n-rrkjus_psl.1.0.0.UPF
ATOMIC_POSITIONS crystal
 Si   0.1666650000000000  0.3333350000000000  0.6047100000000000
 Si   0.6666650000000001  0.3333350000000000  0.6047100000000000
 Si   0.1666650000000000  0.8333349999999999  0.6047100000000000
 Si   0.6666650000000001  0.8333349999999999  0.6047100000000000
 Si   0.3333350000000000  0.1666650000000000  0.5827900000000000
 Si   0.8333349999999999  0.1666650000000000  0.5827900000000000
 Si   0.3333350000000000  0.6666650000000001  0.5827900000000000
 Si   0.8333349999999999  0.6666650000000001  0.5827900000000000