&BANDS
   outdir='./out',
   prefix= 'aiida'
   filband= 'hhk.bands'
/
