!    ibrav = 0, nat = 4, ntyp = 1
CELL_PARAMETERS bohr
   11.5202845369641889    0.0000000000000000    0.0000000000000000
   -5.7601422684820944    9.9768590676852984    0.0000000000000000
    0.0000000000000000    0.0000000000000000   37.7945227409938056
ATOMIC_SPECIES
 Si   28.08550   Si.pbe-n-rrkjus_psl.1.0.0.UPF
ATOMIC_POSITIONS crystal
 Si   0.5000000000000000  0.5000000000000000  0.5000000000000000
 Si   0.5000000000000000  0.1160000000000000  0.5000000000000000
 Si   0.8840000000000000  0.5000000000000000  0.5000000000000000
 Si   0.2945000000000000  0.7055000000000000  0.5520000000000000