&CONTROL
  calculation = 'scf'
  prefix = 'Si'
  pseudo_dir = './pseudo/'         
  outdir = './out/'
  verbosity = 'high'
/

&SYSTEM
  a   = 3.89961
  c  = 19.99998
  ibrav       = 4
  nat         = 2
  ntyp        = 1
  nbnd        = 30
  degauss     =  0.02
  ecutwfc     =  80
  occupations = 'smearing'
  smearing    = 'gaussian'
/

&ELECTRONS
  conv_thr =   1.0d-6
  mixing_beta =  0.7
/

ATOMIC_SPECIES
 Si  28.0855  Si.upf

ATOMIC_POSITIONS crystal
Si  0.33333  0.66667  0.60471
Si  0.66667  0.33333  0.58279

K_POINTS automatic
12 12 1 0 0 0
