&CONTROL
  calculation = 'scf'
  prefix = 'Si'
  pseudo_dir = './pseudo/'         
  outdir = './out/'
  verbosity = 'high'
/

&SYSTEM
  a   = 5.3912
  c  = 20
  ibrav       = 4
  nat         = 4
  ntyp        = 1
  degauss     =  0.02
  ecutwfc     =  10
  occupations = 'smearing'
  smearing    = 'gaussian'
/

&ELECTRONS
  conv_thr =   1.0d-8
  mixing_beta =  0.7
/

ATOMIC_SPECIES
 Si  28.0855  Si.upf

ATOMIC_POSITIONS crystal
Si           0.5	0.5	0.5
Si           0.5	0.116	0.5
Si           0.884	0.5	0.5
Si 	     0.2945	0.7055	0.552

K_POINTS automatic
12 12 1 0 0 0
