!    ibrav = 0, nat = 12, ntyp = 1
CELL_PARAMETERS bohr
   15.8392914177139996    0.0000000000000000    0.0000000000000000
   -7.9196457088569998   13.7172287456149036    0.0000000000000000
    0.0000000000000000    0.0000000000000000   37.7945227409938056
ATOMIC_SPECIES
 Si   28.08550   Si.pbesol-n-rrkjus_psl.1.0.0.UPF
ATOMIC_POSITIONS crystal
 Si   0.1250000000000000  0.1250000000000000  0.5000000000000000
 Si   0.6250000000000000  0.1250000000000000  0.5000000000000000
 Si   0.1250000000000000  0.6250000000000000  0.5000000000000000
 Si   0.6250000000000000  0.6250000000000000  0.5000000000000000
 Si   0.3750000000000000  0.1250000000000000  0.5100000000000000
 Si   0.8750000000000000  0.1250000000000000  0.5100000000000000
 Si   0.3750000000000000  0.6250000000000000  0.5100000000000000
 Si   0.8750000000000000  0.6250000000000000  0.5100000000000000
 Si   0.3750000000000000  0.3750000000000000  0.5000000000000000
 Si   0.8750000000000000  0.3750000000000000  0.5000000000000000
 Si   0.3750000000000000  0.8750000000000000  0.5000000000000000
 Si   0.8750000000000000  0.8750000000000000  0.5000000000000000