&CONTROL
  calculation = 'scf'
  prefix = 'Si'
  pseudo_dir = './pseudo/'         
  outdir = './out/'
  verbosity = 'high'
/

&SYSTEM
  a   = 3.85481
  c  = 20
  ibrav       = 4
  nat         = 2
  ntyp        = 1
  degauss     =  0.02
  ecutwfc     =  30
  occupations = 'smearing'
  smearing    = 'gaussian'
/

&ELECTRONS
  conv_thr =   1.0d-8
  mixing_beta =  0.7
/

ATOMIC_SPECIES
 Si  28.0855  Si.upf

ATOMIC_POSITIONS crystal
Si  0.33333  0.66667  0.5
Si  0.66667  0.33333  0.5

K_POINTS automatic
12 12 1 0 0 0
