!    ibrav = 0, nat = 12, ntyp = 1
CELL_PARAMETERS bohr
   16.8503100188446773    0.0000000000000000    0.0000000000000000
   -8.4251550094223386   14.5927965378399467    0.0000000000000000
    0.0000000000000000    0.0000000000000000   37.7944849464710657
ATOMIC_SPECIES
 Si   28.08550   Si.pbesol-n-rrkjus_psl.1.0.0.UPF
ATOMIC_POSITIONS crystal
 Si   0.1250000000000000  0.1250000000000000  0.5000000000000000
 Si   0.6250000000000000  0.1250000000000000  0.5000000000000000
 Si   0.1250000000000000  0.6250000000000000  0.5000000000000000
 Si   0.6250000000000000  0.6250000000000000  0.5000000000000000
 Si   0.3750000000000000  0.1250000000000000  0.5100000000000000
 Si   0.8750000000000000  0.1250000000000000  0.5100000000000000
 Si   0.3750000000000000  0.6250000000000000  0.5100000000000000
 Si   0.8750000000000000  0.6250000000000000  0.5100000000000000
 Si   0.3750000000000000  0.3750000000000000  0.5000000000000000
 Si   0.8750000000000000  0.3750000000000000  0.5000000000000000
 Si   0.3750000000000000  0.8750000000000000  0.5000000000000000
 Si   0.8750000000000000  0.8750000000000000  0.5000000000000000